1 7 8 11 10 12 9 14 4 2 5 6 0 3 13
13 12 4 2 11 10 9 6 1 3 8 7 5 0 14
10 14 12 8 0 7 4 11 5 13 2 3 9 6 1
6 0 11 8 3 13 9 14 7 12 4 10 1 5 2
11 13 1 10 6 3 0 14 4 9 8 2 7 5 12
10 13 1 3 7 9 4 8 0 2 11 5 6 14 12
4 13 1 0 12 11 3 7 6 9 14 2 5 10 8
6 11 12 3 14 1 5 0 10 8 7 13 4 2 9
12 6 11 7 2 10 14 1 5 13 0 3 9 8 4
12 1 5 9 6 11 13 7 0 4 14 3 8 2 10
12 3 13 5 0 2 10 6 11 7 1 8 9 14 4
12 6 5 9 0 11 13 1 8 3 14 7 10 2 4
10 12 4 14 6 0 9 1 2 8 3 5 11 13 7
1 11 4 14 7 0 9 10 2 5 12 3 8 13 6
10 9 1 4 7 12 3 2 5 14 0 6 13 11 8